
  12    4
  10   10   10   10

   0   0   0   0   0   1 2 
   7   0   1   1   1   1 3 
   9   0   0   0   0   1 4 
   6   0   4   0   0   1 5 
   6   0   6   0   0   1 6 
   8   1   0   0   0   1 7 
   7   0   0   5   7   1 8 
   1   0   7   7   5   1 9 
   3   7   6   0   5   1 10 
   1   7   0   0   6   1 11 
   5   5   6   7   6   1 12
   0   0   0   0   0   0 
